n=4;
row=8;
column=8;
Board=[|4,1,3,2,4,0,0,0|3,2,1,0,0,2,3,4|1,0,0,2,0,4,2,0|0,4,0,0,4,0,1,3|4,0,4,3,2,0,3,0|2,0,1,4,0,0,4,3|0,2,3,1,0,0,2,4|3,4,2,3,2,1,4,1|];
Region=[|1,2,3,4,4,4,4,5|1,2,3,6,6,6,6,5|1,2,3,7,8,9,10,5|1,2,3,7,8,9,10,5|11,12,13,7,8,9,10,14|11,12,13,7,8,9,10,14|11,12,13,15,15,15,15,14|11,12,13,16,16,16,16,14|];
